(declare-const N Int)
(declare-const M Int)
(declare-const a Int)
(declare-const b Int)
(declare-const c Int)
(declare-const d Int)
(declare-const e Int)
(declare-const i Int)
(declare-const gt Int)
(assert (not (<= 1 N)))
(check-sat)
(model)
